c MINISAT
c (1) B -> s처cio com bigode
c (2) C -> s처cio casado
c (3) R -> s처cio de Ribeir찾o
c (4) A -> camisola amarela 
c (5) D -> ir a jogos ao Domingo


p cnf 5 7
-1 2 0
3 4 0
-2 -5 0
-5 3 0
-3 5 0
1 -4 0
-3 1 0
